NBLOCK = 50
TEBEG = 100
#TEEND = 100
NSW = 100000
POTIM = 0.5