H48 Pb8 C8 I24 N8
1.0
12.800000 0.000000 0.000000
0.000000 12.800000 0.000000
0.000000 0.000000 12.200000
H Pb C I N
48 8 8 24 8
direct
0.902132 0.920216 0.886435 H
0.901956 0.762694 0.386435 H
0.901956 0.262694 0.886435 H
0.902132 0.420216 0.386436 H
0.401956 0.762694 0.886435 H
0.402132 0.920216 0.386436 H
0.402132 0.420216 0.886435 H
0.401956 0.262694 0.386435 H
0.330111 0.933573 0.263339 H
0.473977 0.749337 0.763339 H
0.473977 0.249337 0.263339 H
0.330111 0.433573 0.763339 H
0.973977 0.749337 0.263339 H
0.830111 0.933573 0.763339 H
0.830111 0.433573 0.263339 H
0.973977 0.249337 0.763339 H
0.830357 0.749235 0.263112 H
0.973731 0.933675 0.763112 H
0.973731 0.433675 0.263112 H
0.830357 0.249235 0.763112 H
0.473731 0.933675 0.263112 H
0.330357 0.749235 0.763112 H
0.330357 0.249235 0.263112 H
0.473731 0.433675 0.763112 H
0.334852 0.248676 0.820236 H
0.469236 0.434234 0.320236 H
0.469236 0.934234 0.820236 H
0.334852 0.748676 0.320236 H
0.969236 0.434234 0.820236 H
0.834852 0.248676 0.320236 H
0.834852 0.748676 0.820236 H
0.969236 0.934234 0.320236 H
0.834630 0.434136 0.820054 H
0.969458 0.248774 0.320054 H
0.969458 0.748774 0.820054 H
0.834630 0.934136 0.320054 H
0.469458 0.248774 0.820054 H
0.334630 0.434136 0.320054 H
0.334630 0.934136 0.820054 H
0.469458 0.748774 0.320054 H
0.402100 0.421446 0.206627 H
0.401988 0.261464 0.706627 H
0.401988 0.761464 0.206627 H
0.402100 0.921446 0.706627 H
0.901988 0.261464 0.206627 H
0.902100 0.421446 0.706626 H
0.902100 0.921446 0.206627 H
0.901988 0.761464 0.706627 H
0.151954 0.612735 0.061555 Pb
0.151782 0.615250 0.561829 Pb
0.152603 0.114298 0.061460 Pb
0.151989 0.114107 0.560623 Pb
0.651410 0.614695 0.061230 Pb
0.652534 0.615492 0.561440 Pb
0.650819 0.114389 0.062520 Pb
0.652697 0.114114 0.561183 Pb
0.902007 0.901080 0.801136 C
0.902081 0.781830 0.301136 C
0.902081 0.281830 0.801136 C
0.902007 0.401080 0.301136 C
0.402081 0.781830 0.801136 C
0.402007 0.901080 0.301136 C
0.402007 0.401080 0.801136 C
0.402081 0.281830 0.301136 C
0.208630 0.665270 0.811259 I
0.097337 0.563686 0.311921 I
0.103611 0.059069 0.810810 I
0.201442 0.170994 0.310780 I
0.602883 0.558901 0.811503 I
0.702159 0.670974 0.311511 I
0.707097 0.163204 0.811320 I
0.593624 0.064816 0.311337 I
0.406250 0.688454 0.104236 I
0.406982 0.689076 0.518946 I
0.397197 0.038879 0.018036 I
0.397443 0.040459 0.602786 I
0.897992 0.541533 0.017954 I
0.898348 0.540068 0.605209 I
0.906278 0.188980 0.102847 I
0.906513 0.189773 0.518760 I
0.077647 0.859675 0.105202 I
0.076527 0.859984 0.517037 I
0.228135 0.368455 0.016804 I
0.224824 0.368466 0.605229 I
0.724525 0.868865 0.017394 I
0.728929 0.869258 0.602616 I
0.577746 0.360785 0.103681 I
0.579319 0.360301 0.518957 I
0.902075 0.284179 0.286864 N
0.902013 0.398731 0.786864 N
0.902013 0.898731 0.286864 N
0.902075 0.784179 0.786864 N
0.402013 0.398731 0.286864 N
0.402075 0.284179 0.786864 N
0.402075 0.784179 0.286864 N
0.402013 0.898731 0.786864 N
